Gurobi 12.0.3:   lim:time = 14400
  mip:bestbound = 1
Set parameter LogToConsole to value 1
  tech:outlev = 1
Set parameter InfUnbdInfo to value 1
Gurobi Optimizer version 12.0.3 build v12.0.3rc0 (win64 - Windows 10.0 (19045.2))

CPU model: Intel(R) Core(TM) i7-10700 CPU @ 2.90GHz, instruction set [SSE2|AVX|AVX2]
Thread count: 8 physical cores, 16 logical processors, using up to 16 threads

Non-default parameters:
TimeLimit  14400
InfUnbdInfo  1

Optimize a model with 448 rows, 950 columns and 4823 nonzeros
Model fingerprint: 0x52e61ab3
Model has 2 quadratic objective terms
Model has 6 quadratic constraints
Variable types: 30 continuous, 920 integer (0 binary)
Coefficient statistics:
  Matrix range     [1e+00, 1e+05]
  QMatrix range    [1e+00, 1e+00]
  QLMatrix range   [1e+00, 2e+01]
  Objective range  [8e+00, 1e+02]
  QObjective range [1e+00, 1e+00]
  Bounds range     [1e+00, 9e+01]
  RHS range        [1e+00, 1e+05]
  QRHS range       [1e+02, 1e+02]
Presolve removed 28 rows and 29 columns
Presolve time: 0.01s
Presolved: 867 rows, 1307 columns, 6766 nonzeros
Variable types: 133 continuous, 1174 integer (1173 binary)
Found heuristic solution: objective 978.0300000

Root relaxation: objective 1.807816e+02, 92 iterations, 0.00 seconds (0.00 work units)

    Nodes    |    Current Node    |     Objective Bounds      |     Work
 Expl Unexpl |  Obj  Depth IntInf | Incumbent    BestBd   Gap | It/Node Time

     0     0  180.78160    0   27  978.03000  180.78160  81.5%     -    0s
H    0     0                     723.8400000  180.78160  75.0%     -    0s
H    0     0                     563.9700000  180.78160  67.9%     -    0s
     0     0  241.12000    0   25  563.97000  241.12000  57.2%     -    0s
     0     0  246.38500    0   27  563.97000  246.38500  56.3%     -    0s
     0     0  247.98500    0   23  563.97000  247.98500  56.0%     -    0s
     0     0  248.53196    0   35  563.97000  248.53196  55.9%     -    0s
     0     0  252.34000    0   28  563.97000  252.34000  55.3%     -    0s
     0     0  255.88254    0   36  563.97000  255.88254  54.6%     -    0s
     0     0  256.49000    0   34  563.97000  256.49000  54.5%     -    0s
H    0     0                     549.7700000  256.49000  53.3%     -    0s
H    0     0                     518.4300000  256.49000  50.5%     -    0s
     0     0  256.49000    0   30  518.43000  256.49000  50.5%     -    0s
     0     0  256.49000    0   26  518.43000  256.49000  50.5%     -    0s
     0     2  256.63000    0   26  518.43000  256.63000  50.5%     -    0s
H   26    63                     509.4400000  256.63000  49.6%  22.7    0s
H   64   101                     339.1900000  256.63000  24.3%  17.0    0s
H  121   120                     334.5300000  256.63000  23.3%  15.5    0s
H 3038  1342                     332.8900000  266.82750  19.8%  10.9    1s
H 3200  1334                     331.6300000  266.82750  19.5%  11.8    2s
  9345  1557  282.98993   30   10  331.63000  281.56518  15.1%  11.5    5s
 33507  3148     cutoff   34       331.63000  306.28000  7.64%  10.7   10s

Cutting planes:
  Learned: 13
  Gomory: 27
  Cover: 31
  Implied bound: 19
  Projected implied bound: 6
  Clique: 1
  MIR: 21
  Mixing: 5
  Flow cover: 149
  Inf proof: 33
  RLT: 84

Explored 47229 nodes (524362 simplex iterations) in 12.27 seconds (7.74 work units)
Thread count was 16 (of 16 available processors)

Solution count 10: 331.63 331.63 332.89 ... 723.84

Optimal solution found (tolerance 1.00e-04)
Best objective 3.316300000000e+02, best bound 3.316300000000e+02, gap 0.0000%

AMPL MP initial flat model has 950 variables (0 integer, 920 binary);
Objectives: 1 quadratic; 
Constraints:  448 linear; 6 quadratic;

AMPL MP final model has 950 variables (0 integer, 920 binary);
Objectives: 1 quadratic; 
Constraints:  448 linear; 6 quadratic;


-----RESULTS INFO-----
running_time:  12.297
TC.best_bound:  331.63
TC:  331.62999999999994
MIP Gap (%):  1.7140614196787995e-14
=== Vehicle Routes ===
Vehicle 1: 0 → 16
Vehicle 1: 5 → 22
Vehicle 1: 12 → 5
Vehicle 1: 16 → 12
Vehicle 2: 0 → 22
Vehicle 3: 0 → 9
Vehicle 3: 1 → 3
Vehicle 3: 2 → 22
Vehicle 3: 3 → 17
Vehicle 3: 4 → 2
Vehicle 3: 9 → 1
Vehicle 3: 17 → 4
Vehicle 4: 0 → 22

=== Full Vehicle Routes ===
Vehicle 1: 0 → 16 → 12 → 5 → 0 (61<100)
Vehicle 2: 0 → 0 (0<100)
Vehicle 3: 0 → 9 → 1 → 3 → 17 → 4 → 2 → 0 (71<100)
Vehicle 4: 0 → 0 (0<100)
Arc used by MRT line: y variables:
MRT used: 12 → 13
Customer assigment to PL: u variables:
6 17
7 16
8 12
10 13
11 13
Node is served by regular vehicle: g variables:
1
2
3
4
5
9
12
16
17
Customer assigment to Home delivery: gm variables:
1
2
3
4
5
9
Node total demands: ntd variables:
1 9 1
2 3 1
3 19 1
4 6 1
5 7 1
9 18 1
10 0 0
11 0 0
18 0 0
19 0 0
20 0 0
21 0 0
12 40 1
13 0 0
14 0 0
15 0 0
16 14 1
17 16 1
Customer's demand delivered to PL: l variables:
6
7
8
10
11
Lockers load <= capacity:
0 <= 100
0 <= 95
0 <= 81
0 <= 74
20 <= 89
20 <= 76
0 <= 70
0 <= 94
14 <= 79
16 <= 97
